NAME          COPTPROB
OBJSENSE
  MIN
ROWS
 N  __OBJ___
 L  C27     
 L  C44     
 L  C85     
 L  C104    
 L  C156    
COLUMNS
    MARKER    'MARKER'                 'INTORG'
    x37       __OBJ___  149
    x37       C104      -1
    x37       C156      -1
    x230      __OBJ___  132
    x230      C27       -1
    x230      C85       -1
    x389      __OBJ___  70
    x389      C27       -1
    x389      C44       -1
    x1059     __OBJ___  37
    x1059     C44       -1
    x1059     C156      -1
    x1130     __OBJ___  103
    x1130     C85       -1
    x1199     __OBJ___  235
    x1199     C85       -1
    x1199     C104      -1
    MARKER    'MARKER'                 'INTEND'
RHS
    RHS       __OBJ___  -9765
    RHS       C27       -1
    RHS       C44       -1
    RHS       C85       -1
    RHS       C104      -1
    RHS       C156      -1
BOUNDS
 UP BOUND     x37       1
 UP BOUND     x230      1
 UP BOUND     x389      1
 UP BOUND     x1059     1
 UP BOUND     x1130     1
 UP BOUND     x1199     1
ENDATA
